DIMENSION: 9
EDGE_WEIGHT_TYPE: EXPLICIT
EDGE_WEIGHT_FORMAT: FULL_MATRIX
EDGE_WEIGHT_SECTION:
32767 32767 32767 76 12 81 86 32767 30 
32767 32767 71 32767 19 65 32767 46 3 
32767 71 32767 1 58 84 91 74 50 
76 32767 1 32767 32767 1 28 32767 22 
12 19 58 32767 32767 54 31 32767 32767 
81 65 84 1 54 32767 37 32767 32767 
86 32767 91 28 31 37 32767 92 59 
32767 46 74 32767 32767 32767 92 32767 54 
30 3 50 22 32767 32767 59 54 32767 
EOF